lc101
1 33 34 32 36 38 39 40 37 106 35 1
1 82 79 105 77 72 71 74 78 80 81 1
1 14 18 19 20 16 17 15 13 1
1 6 4 8 9 11 12 10 7 5 3 2 76 1
1 91 88 87 84 83 85 86 89 90 92 1
1 68 66 64 63 75 73 62 65 103 69 67 70 1
1 99 97 96 95 93 94 98 107 101 100 1
1 58 56 55 54 57 59 61 60 1
1 44 43 42 41 45 47 46 49 52 102 51 53 50 48 1
1 21 25 26 28 30 31 29 27 24 104 23 22 1
